(set-info :category "industrial")
(set-info :status sat)
(declare-fun x00 () (_ BitVec 8))
(declare-fun x01 () (_ BitVec 8))
(declare-fun x02 () (_ BitVec 8))
(declare-fun x03 () (_ BitVec 8))
(declare-fun x04 () (_ BitVec 8))
(declare-fun x06 () (_ BitVec 8))
(declare-fun x11 () (_ BitVec 8))
(declare-fun x12 () (_ BitVec 8))
(declare-fun x14 () (_ BitVec 8))
(declare-fun x15 () (_ BitVec 8))
(declare-fun x16 () (_ BitVec 8))
(declare-fun x17 () (_ BitVec 8))
(declare-fun x18 () (_ BitVec 8))
(declare-fun x20 () (_ BitVec 8))
(declare-fun x21 () (_ BitVec 8))
(declare-fun x22 () (_ BitVec 8))
(declare-fun x23 () (_ BitVec 8))
(declare-fun x25 () (_ BitVec 8))
(declare-fun x27 () (_ BitVec 8))
(declare-fun x28 () (_ BitVec 8))
(declare-fun x32 () (_ BitVec 8))
(declare-fun x34 () (_ BitVec 8))
(declare-fun x35 () (_ BitVec 8))
(declare-fun x37 () (_ BitVec 8))
(declare-fun x38 () (_ BitVec 8))
(declare-fun x41 () (_ BitVec 8))
(declare-fun x42 () (_ BitVec 8))
(declare-fun x43 () (_ BitVec 8))
(declare-fun x44 () (_ BitVec 8))
(declare-fun x45 () (_ BitVec 8))
(declare-fun x46 () (_ BitVec 8))
(declare-fun x50 () (_ BitVec 8))
(declare-fun x52 () (_ BitVec 8))
(declare-fun x53 () (_ BitVec 8))
(declare-fun x54 () (_ BitVec 8))
(declare-fun x55 () (_ BitVec 8))
(declare-fun x56 () (_ BitVec 8))
(declare-fun x57 () (_ BitVec 8))
(declare-fun x61 () (_ BitVec 8))
(declare-fun x62 () (_ BitVec 8))
(declare-fun x63 () (_ BitVec 8))
(declare-fun x64 () (_ BitVec 8))
(declare-fun x65 () (_ BitVec 8))
(declare-fun x67 () (_ BitVec 8))
(declare-fun x68 () (_ BitVec 8))
(declare-fun x70 () (_ BitVec 8))
(declare-fun x72 () (_ BitVec 8))
(declare-fun x73 () (_ BitVec 8))
(declare-fun x74 () (_ BitVec 8))
(declare-fun x76 () (_ BitVec 8))
(declare-fun x77 () (_ BitVec 8))
(declare-fun x78 () (_ BitVec 8))
(declare-fun x80 () (_ BitVec 8))
(declare-fun x81 () (_ BitVec 8))
(declare-fun x85 () (_ BitVec 8))
(declare-fun x86 () (_ BitVec 8))
(declare-fun x87 () (_ BitVec 8))
(declare-fun x88 () (_ BitVec 8))
(assert (bvult x00 (_ bv9 8)))
(assert (bvult x01 (_ bv9 8)))
(assert (bvult x02 (_ bv9 8)))
(assert (bvult x03 (_ bv9 8)))
(assert (bvult x04 (_ bv9 8)))
(assert (bvult x06 (_ bv9 8)))
(assert (bvult x11 (_ bv9 8)))
(assert (bvult x12 (_ bv9 8)))
(assert (bvult x14 (_ bv9 8)))
(assert (bvult x15 (_ bv9 8)))
(assert (bvult x16 (_ bv9 8)))
(assert (bvult x17 (_ bv9 8)))
(assert (bvult x18 (_ bv9 8)))
(assert (bvult x20 (_ bv9 8)))
(assert (bvult x21 (_ bv9 8)))
(assert (bvult x22 (_ bv9 8)))
(assert (bvult x23 (_ bv9 8)))
(assert (bvult x25 (_ bv9 8)))
(assert (bvult x27 (_ bv9 8)))
(assert (bvult x28 (_ bv9 8)))
(assert (bvult x32 (_ bv9 8)))
(assert (bvult x34 (_ bv9 8)))
(assert (bvult x35 (_ bv9 8)))
(assert (bvult x37 (_ bv9 8)))
(assert (bvult x38 (_ bv9 8)))
(assert (bvult x41 (_ bv9 8)))
(assert (bvult x42 (_ bv9 8)))
(assert (bvult x43 (_ bv9 8)))
(assert (bvult x44 (_ bv9 8)))
(assert (bvult x45 (_ bv9 8)))
(assert (bvult x46 (_ bv9 8)))
(assert (bvult x50 (_ bv9 8)))
(assert (bvult x52 (_ bv9 8)))
(assert (bvult x53 (_ bv9 8)))
(assert (bvult x54 (_ bv9 8)))
(assert (bvult x55 (_ bv9 8)))
(assert (bvult x56 (_ bv9 8)))
(assert (bvult x57 (_ bv9 8)))
(assert (bvult x61 (_ bv9 8)))
(assert (bvult x62 (_ bv9 8)))
(assert (bvult x63 (_ bv9 8)))
(assert (bvult x64 (_ bv9 8)))
(assert (bvult x65 (_ bv9 8)))
(assert (bvult x67 (_ bv9 8)))
(assert (bvult x68 (_ bv9 8)))
(assert (bvult x70 (_ bv9 8)))
(assert (bvult x72 (_ bv9 8)))
(assert (bvult x73 (_ bv9 8)))
(assert (bvult x74 (_ bv9 8)))
(assert (bvult x76 (_ bv9 8)))
(assert (bvult x77 (_ bv9 8)))
(assert (bvult x78 (_ bv9 8)))
(assert (bvult x80 (_ bv9 8)))
(assert (bvult x81 (_ bv9 8)))
(assert (bvult x85 (_ bv9 8)))
(assert (bvult x86 (_ bv9 8)))
(assert (bvult x87 (_ bv9 8)))
(assert (bvult x88 (_ bv9 8)))
(assert (not (= x00 x01)))
(assert (not (= x00 x02)))
(assert (not (= x00 x03)))
(assert (not (= x00 x04)))
(assert (not (= x00 (_ bv8 8))))
(assert (not (= x00 x06)))
(assert (not (= x00 (_ bv2 8))))
(assert (not (= x00 (_ bv9 8))))
(assert (not (= x01 x02)))
(assert (not (= x01 x03)))
(assert (not (= x01 x04)))
(assert (not (= x01 (_ bv8 8))))
(assert (not (= x01 x06)))
(assert (not (= x01 (_ bv2 8))))
(assert (not (= x01 (_ bv9 8))))
(assert (not (= x02 x03)))
(assert (not (= x02 x04)))
(assert (not (= x02 (_ bv8 8))))
(assert (not (= x02 x06)))
(assert (not (= x02 (_ bv2 8))))
(assert (not (= x02 (_ bv9 8))))
(assert (not (= x03 x04)))
(assert (not (= x03 (_ bv8 8))))
(assert (not (= x03 x06)))
(assert (not (= x03 (_ bv2 8))))
(assert (not (= x03 (_ bv9 8))))
(assert (not (= x04 (_ bv8 8))))
(assert (not (= x04 x06)))
(assert (not (= x04 (_ bv2 8))))
(assert (not (= x04 (_ bv9 8))))
(assert (not (= (_ bv8 8) x06)))
(assert (not (= (_ bv8 8) (_ bv2 8))))
(assert (not (= (_ bv8 8) (_ bv9 8))))
(assert (not (= x06 (_ bv2 8))))
(assert (not (= x06 (_ bv9 8))))
(assert (not (= (_ bv2 8) (_ bv9 8))))
(assert (not (= (_ bv4 8) x11)))
(assert (not (= (_ bv4 8) x12)))
(assert (not (= (_ bv4 8) (_ bv7 8))))
(assert (not (= (_ bv4 8) x14)))
(assert (not (= (_ bv4 8) x15)))
(assert (not (= (_ bv4 8) x16)))
(assert (not (= (_ bv4 8) x17)))
(assert (not (= (_ bv4 8) x18)))
(assert (not (= x11 x12)))
(assert (not (= x11 (_ bv7 8))))
(assert (not (= x11 x14)))
(assert (not (= x11 x15)))
(assert (not (= x11 x16)))
(assert (not (= x11 x17)))
(assert (not (= x11 x18)))
(assert (not (= x12 (_ bv7 8))))
(assert (not (= x12 x14)))
(assert (not (= x12 x15)))
(assert (not (= x12 x16)))
(assert (not (= x12 x17)))
(assert (not (= x12 x18)))
(assert (not (= (_ bv7 8) x14)))
(assert (not (= (_ bv7 8) x15)))
(assert (not (= (_ bv7 8) x16)))
(assert (not (= (_ bv7 8) x17)))
(assert (not (= (_ bv7 8) x18)))
(assert (not (= x14 x15)))
(assert (not (= x14 x16)))
(assert (not (= x14 x17)))
(assert (not (= x14 x18)))
(assert (not (= x15 x16)))
(assert (not (= x15 x17)))
(assert (not (= x15 x18)))
(assert (not (= x16 x17)))
(assert (not (= x16 x18)))
(assert (not (= x17 x18)))
(assert (not (= x20 x21)))
(assert (not (= x20 x22)))
(assert (not (= x20 x23)))
(assert (not (= x20 (_ bv2 8))))
(assert (not (= x20 x25)))
(assert (not (= x20 (_ bv1 8))))
(assert (not (= x20 x27)))
(assert (not (= x20 x28)))
(assert (not (= x21 x22)))
(assert (not (= x21 x23)))
(assert (not (= x21 (_ bv2 8))))
(assert (not (= x21 x25)))
(assert (not (= x21 (_ bv1 8))))
(assert (not (= x21 x27)))
(assert (not (= x21 x28)))
(assert (not (= x22 x23)))
(assert (not (= x22 (_ bv2 8))))
(assert (not (= x22 x25)))
(assert (not (= x22 (_ bv1 8))))
(assert (not (= x22 x27)))
(assert (not (= x22 x28)))
(assert (not (= x23 (_ bv2 8))))
(assert (not (= x23 x25)))
(assert (not (= x23 (_ bv1 8))))
(assert (not (= x23 x27)))
(assert (not (= x23 x28)))
(assert (not (= (_ bv2 8) x25)))
(assert (not (= (_ bv2 8) (_ bv1 8))))
(assert (not (= (_ bv2 8) x27)))
(assert (not (= (_ bv2 8) x28)))
(assert (not (= x25 (_ bv1 8))))
(assert (not (= x25 x27)))
(assert (not (= x25 x28)))
(assert (not (= (_ bv1 8) x27)))
(assert (not (= (_ bv1 8) x28)))
(assert (not (= x27 x28)))
(assert (not (= (_ bv8 8) (_ bv5 8))))
(assert (not (= (_ bv8 8) x32)))
(assert (not (= (_ bv8 8) (_ bv3 8))))
(assert (not (= (_ bv8 8) x34)))
(assert (not (= (_ bv8 8) x35)))
(assert (not (= (_ bv8 8) (_ bv7 8))))
(assert (not (= (_ bv8 8) x37)))
(assert (not (= (_ bv8 8) x38)))
(assert (not (= (_ bv5 8) x32)))
(assert (not (= (_ bv5 8) (_ bv3 8))))
(assert (not (= (_ bv5 8) x34)))
(assert (not (= (_ bv5 8) x35)))
(assert (not (= (_ bv5 8) (_ bv7 8))))
(assert (not (= (_ bv5 8) x37)))
(assert (not (= (_ bv5 8) x38)))
(assert (not (= x32 (_ bv3 8))))
(assert (not (= x32 x34)))
(assert (not (= x32 x35)))
(assert (not (= x32 (_ bv7 8))))
(assert (not (= x32 x37)))
(assert (not (= x32 x38)))
(assert (not (= (_ bv3 8) x34)))
(assert (not (= (_ bv3 8) x35)))
(assert (not (= (_ bv3 8) (_ bv7 8))))
(assert (not (= (_ bv3 8) x37)))
(assert (not (= (_ bv3 8) x38)))
(assert (not (= x34 x35)))
(assert (not (= x34 (_ bv7 8))))
(assert (not (= x34 x37)))
(assert (not (= x34 x38)))
(assert (not (= x35 (_ bv7 8))))
(assert (not (= x35 x37)))
(assert (not (= x35 x38)))
(assert (not (= (_ bv7 8) x37)))
(assert (not (= (_ bv7 8) x38)))
(assert (not (= x37 x38)))
(assert (not (= (_ bv6 8) x41)))
(assert (not (= (_ bv6 8) x42)))
(assert (not (= (_ bv6 8) x43)))
(assert (not (= (_ bv6 8) x44)))
(assert (not (= (_ bv6 8) x45)))
(assert (not (= (_ bv6 8) x46)))
(assert (not (= (_ bv6 8) (_ bv9 8))))
(assert (not (= (_ bv6 8) (_ bv1 8))))
(assert (not (= x41 x42)))
(assert (not (= x41 x43)))
(assert (not (= x41 x44)))
(assert (not (= x41 x45)))
(assert (not (= x41 x46)))
(assert (not (= x41 (_ bv9 8))))
(assert (not (= x41 (_ bv1 8))))
(assert (not (= x42 x43)))
(assert (not (= x42 x44)))
(assert (not (= x42 x45)))
(assert (not (= x42 x46)))
(assert (not (= x42 (_ bv9 8))))
(assert (not (= x42 (_ bv1 8))))
(assert (not (= x43 x44)))
(assert (not (= x43 x45)))
(assert (not (= x43 x46)))
(assert (not (= x43 (_ bv9 8))))
(assert (not (= x43 (_ bv1 8))))
(assert (not (= x44 x45)))
(assert (not (= x44 x46)))
(assert (not (= x44 (_ bv9 8))))
(assert (not (= x44 (_ bv1 8))))
(assert (not (= x45 x46)))
(assert (not (= x45 (_ bv9 8))))
(assert (not (= x45 (_ bv1 8))))
(assert (not (= x46 (_ bv9 8))))
(assert (not (= x46 (_ bv1 8))))
(assert (not (= (_ bv9 8) (_ bv1 8))))
(assert (not (= x50 (_ bv1 8))))
(assert (not (= x50 x52)))
(assert (not (= x50 x53)))
(assert (not (= x50 x54)))
(assert (not (= x50 x55)))
(assert (not (= x50 x56)))
(assert (not (= x50 x57)))
(assert (not (= x50 (_ bv8 8))))
(assert (not (= (_ bv1 8) x52)))
(assert (not (= (_ bv1 8) x53)))
(assert (not (= (_ bv1 8) x54)))
(assert (not (= (_ bv1 8) x55)))
(assert (not (= (_ bv1 8) x56)))
(assert (not (= (_ bv1 8) x57)))
(assert (not (= (_ bv1 8) (_ bv8 8))))
(assert (not (= x52 x53)))
(assert (not (= x52 x54)))
(assert (not (= x52 x55)))
(assert (not (= x52 x56)))
(assert (not (= x52 x57)))
(assert (not (= x52 (_ bv8 8))))
(assert (not (= x53 x54)))
(assert (not (= x53 x55)))
(assert (not (= x53 x56)))
(assert (not (= x53 x57)))
(assert (not (= x53 (_ bv8 8))))
(assert (not (= x54 x55)))
(assert (not (= x54 x56)))
(assert (not (= x54 x57)))
(assert (not (= x54 (_ bv8 8))))
(assert (not (= x55 x56)))
(assert (not (= x55 x57)))
(assert (not (= x55 (_ bv8 8))))
(assert (not (= x56 x57)))
(assert (not (= x56 (_ bv8 8))))
(assert (not (= x57 (_ bv8 8))))
(assert (not (= (_ bv5 8) x61)))
(assert (not (= (_ bv5 8) x62)))
(assert (not (= (_ bv5 8) x63)))
(assert (not (= (_ bv5 8) x64)))
(assert (not (= (_ bv5 8) x65)))
(assert (not (= (_ bv5 8) (_ bv4 8))))
(assert (not (= (_ bv5 8) x67)))
(assert (not (= (_ bv5 8) x68)))
(assert (not (= x61 x62)))
(assert (not (= x61 x63)))
(assert (not (= x61 x64)))
(assert (not (= x61 x65)))
(assert (not (= x61 (_ bv4 8))))
(assert (not (= x61 x67)))
(assert (not (= x61 x68)))
(assert (not (= x62 x63)))
(assert (not (= x62 x64)))
(assert (not (= x62 x65)))
(assert (not (= x62 (_ bv4 8))))
(assert (not (= x62 x67)))
(assert (not (= x62 x68)))
(assert (not (= x63 x64)))
(assert (not (= x63 x65)))
(assert (not (= x63 (_ bv4 8))))
(assert (not (= x63 x67)))
(assert (not (= x63 x68)))
(assert (not (= x64 x65)))
(assert (not (= x64 (_ bv4 8))))
(assert (not (= x64 x67)))
(assert (not (= x64 x68)))
(assert (not (= x65 (_ bv4 8))))
(assert (not (= x65 x67)))
(assert (not (= x65 x68)))
(assert (not (= (_ bv4 8) x67)))
(assert (not (= (_ bv4 8) x68)))
(assert (not (= x67 x68)))
(assert (not (= x70 (_ bv9 8))))
(assert (not (= x70 x72)))
(assert (not (= x70 x73)))
(assert (not (= x70 x74)))
(assert (not (= x70 (_ bv3 8))))
(assert (not (= x70 x76)))
(assert (not (= x70 x77)))
(assert (not (= x70 x78)))
(assert (not (= (_ bv9 8) x72)))
(assert (not (= (_ bv9 8) x73)))
(assert (not (= (_ bv9 8) x74)))
(assert (not (= (_ bv9 8) (_ bv3 8))))
(assert (not (= (_ bv9 8) x76)))
(assert (not (= (_ bv9 8) x77)))
(assert (not (= (_ bv9 8) x78)))
(assert (not (= x72 x73)))
(assert (not (= x72 x74)))
(assert (not (= x72 (_ bv3 8))))
(assert (not (= x72 x76)))
(assert (not (= x72 x77)))
(assert (not (= x72 x78)))
(assert (not (= x73 x74)))
(assert (not (= x73 (_ bv3 8))))
(assert (not (= x73 x76)))
(assert (not (= x73 x77)))
(assert (not (= x73 x78)))
(assert (not (= x74 (_ bv3 8))))
(assert (not (= x74 x76)))
(assert (not (= x74 x77)))
(assert (not (= x74 x78)))
(assert (not (= (_ bv3 8) x76)))
(assert (not (= (_ bv3 8) x77)))
(assert (not (= (_ bv3 8) x78)))
(assert (not (= x76 x77)))
(assert (not (= x76 x78)))
(assert (not (= x77 x78)))
(assert (not (= x80 x81)))
(assert (not (= x80 (_ bv7 8))))
(assert (not (= x80 (_ bv6 8))))
(assert (not (= x80 (_ bv5 8))))
(assert (not (= x80 x85)))
(assert (not (= x80 x86)))
(assert (not (= x80 x87)))
(assert (not (= x80 x88)))
(assert (not (= x81 (_ bv7 8))))
(assert (not (= x81 (_ bv6 8))))
(assert (not (= x81 (_ bv5 8))))
(assert (not (= x81 x85)))
(assert (not (= x81 x86)))
(assert (not (= x81 x87)))
(assert (not (= x81 x88)))
(assert (not (= (_ bv7 8) (_ bv6 8))))
(assert (not (= (_ bv7 8) (_ bv5 8))))
(assert (not (= (_ bv7 8) x85)))
(assert (not (= (_ bv7 8) x86)))
(assert (not (= (_ bv7 8) x87)))
(assert (not (= (_ bv7 8) x88)))
(assert (not (= (_ bv6 8) (_ bv5 8))))
(assert (not (= (_ bv6 8) x85)))
(assert (not (= (_ bv6 8) x86)))
(assert (not (= (_ bv6 8) x87)))
(assert (not (= (_ bv6 8) x88)))
(assert (not (= (_ bv5 8) x85)))
(assert (not (= (_ bv5 8) x86)))
(assert (not (= (_ bv5 8) x87)))
(assert (not (= (_ bv5 8) x88)))
(assert (not (= x85 x86)))
(assert (not (= x85 x87)))
(assert (not (= x85 x88)))
(assert (not (= x86 x87)))
(assert (not (= x86 x88)))
(assert (not (= x87 x88)))
(assert (not (= x00 (_ bv4 8))))
(assert (not (= x00 x20)))
(assert (not (= x00 (_ bv8 8))))
(assert (not (= x00 (_ bv6 8))))
(assert (not (= x00 x50)))
(assert (not (= x00 (_ bv5 8))))
(assert (not (= x00 x70)))
(assert (not (= x00 x80)))
(assert (not (= (_ bv4 8) x20)))
(assert (not (= (_ bv4 8) (_ bv8 8))))
(assert (not (= (_ bv4 8) (_ bv6 8))))
(assert (not (= (_ bv4 8) x50)))
(assert (not (= (_ bv4 8) (_ bv5 8))))
(assert (not (= (_ bv4 8) x70)))
(assert (not (= (_ bv4 8) x80)))
(assert (not (= x20 (_ bv8 8))))
(assert (not (= x20 (_ bv6 8))))
(assert (not (= x20 x50)))
(assert (not (= x20 (_ bv5 8))))
(assert (not (= x20 x70)))
(assert (not (= x20 x80)))
(assert (not (= (_ bv8 8) (_ bv6 8))))
(assert (not (= (_ bv8 8) x50)))
(assert (not (= (_ bv8 8) (_ bv5 8))))
(assert (not (= (_ bv8 8) x70)))
(assert (not (= (_ bv8 8) x80)))
(assert (not (= (_ bv6 8) x50)))
(assert (not (= (_ bv6 8) (_ bv5 8))))
(assert (not (= (_ bv6 8) x70)))
(assert (not (= (_ bv6 8) x80)))
(assert (not (= x50 (_ bv5 8))))
(assert (not (= x50 x70)))
(assert (not (= x50 x80)))
(assert (not (= (_ bv5 8) x70)))
(assert (not (= (_ bv5 8) x80)))
(assert (not (= x70 x80)))
(assert (not (= x01 x11)))
(assert (not (= x01 x21)))
(assert (not (= x01 (_ bv5 8))))
(assert (not (= x01 x41)))
(assert (not (= x01 (_ bv1 8))))
(assert (not (= x01 x61)))
(assert (not (= x01 (_ bv9 8))))
(assert (not (= x01 x81)))
(assert (not (= x11 x21)))
(assert (not (= x11 (_ bv5 8))))
(assert (not (= x11 x41)))
(assert (not (= x11 (_ bv1 8))))
(assert (not (= x11 x61)))
(assert (not (= x11 (_ bv9 8))))
(assert (not (= x11 x81)))
(assert (not (= x21 (_ bv5 8))))
(assert (not (= x21 x41)))
(assert (not (= x21 (_ bv1 8))))
(assert (not (= x21 x61)))
(assert (not (= x21 (_ bv9 8))))
(assert (not (= x21 x81)))
(assert (not (= (_ bv5 8) x41)))
(assert (not (= (_ bv5 8) (_ bv1 8))))
(assert (not (= (_ bv5 8) x61)))
(assert (not (= (_ bv5 8) (_ bv9 8))))
(assert (not (= (_ bv5 8) x81)))
(assert (not (= x41 (_ bv1 8))))
(assert (not (= x41 x61)))
(assert (not (= x41 (_ bv9 8))))
(assert (not (= x41 x81)))
(assert (not (= (_ bv1 8) x61)))
(assert (not (= (_ bv1 8) (_ bv9 8))))
(assert (not (= (_ bv1 8) x81)))
(assert (not (= x61 (_ bv9 8))))
(assert (not (= x61 x81)))
(assert (not (= (_ bv9 8) x81)))
(assert (not (= x02 x12)))
(assert (not (= x02 x22)))
(assert (not (= x02 x32)))
(assert (not (= x02 x42)))
(assert (not (= x02 x52)))
(assert (not (= x02 x62)))
(assert (not (= x02 x72)))
(assert (not (= x02 (_ bv7 8))))
(assert (not (= x12 x22)))
(assert (not (= x12 x32)))
(assert (not (= x12 x42)))
(assert (not (= x12 x52)))
(assert (not (= x12 x62)))
(assert (not (= x12 x72)))
(assert (not (= x12 (_ bv7 8))))
(assert (not (= x22 x32)))
(assert (not (= x22 x42)))
(assert (not (= x22 x52)))
(assert (not (= x22 x62)))
(assert (not (= x22 x72)))
(assert (not (= x22 (_ bv7 8))))
(assert (not (= x32 x42)))
(assert (not (= x32 x52)))
(assert (not (= x32 x62)))
(assert (not (= x32 x72)))
(assert (not (= x32 (_ bv7 8))))
(assert (not (= x42 x52)))
(assert (not (= x42 x62)))
(assert (not (= x42 x72)))
(assert (not (= x42 (_ bv7 8))))
(assert (not (= x52 x62)))
(assert (not (= x52 x72)))
(assert (not (= x52 (_ bv7 8))))
(assert (not (= x62 x72)))
(assert (not (= x62 (_ bv7 8))))
(assert (not (= x72 (_ bv7 8))))
(assert (not (= x03 (_ bv7 8))))
(assert (not (= x03 x23)))
(assert (not (= x03 (_ bv3 8))))
(assert (not (= x03 x43)))
(assert (not (= x03 x53)))
(assert (not (= x03 x63)))
(assert (not (= x03 x73)))
(assert (not (= x03 (_ bv6 8))))
(assert (not (= (_ bv7 8) x23)))
(assert (not (= (_ bv7 8) (_ bv3 8))))
(assert (not (= (_ bv7 8) x43)))
(assert (not (= (_ bv7 8) x53)))
(assert (not (= (_ bv7 8) x63)))
(assert (not (= (_ bv7 8) x73)))
(assert (not (= (_ bv7 8) (_ bv6 8))))
(assert (not (= x23 (_ bv3 8))))
(assert (not (= x23 x43)))
(assert (not (= x23 x53)))
(assert (not (= x23 x63)))
(assert (not (= x23 x73)))
(assert (not (= x23 (_ bv6 8))))
(assert (not (= (_ bv3 8) x43)))
(assert (not (= (_ bv3 8) x53)))
(assert (not (= (_ bv3 8) x63)))
(assert (not (= (_ bv3 8) x73)))
(assert (not (= (_ bv3 8) (_ bv6 8))))
(assert (not (= x43 x53)))
(assert (not (= x43 x63)))
(assert (not (= x43 x73)))
(assert (not (= x43 (_ bv6 8))))
(assert (not (= x53 x63)))
(assert (not (= x53 x73)))
(assert (not (= x53 (_ bv6 8))))
(assert (not (= x63 x73)))
(assert (not (= x63 (_ bv6 8))))
(assert (not (= x73 (_ bv6 8))))
(assert (not (= x04 x14)))
(assert (not (= x04 (_ bv2 8))))
(assert (not (= x04 x34)))
(assert (not (= x04 x44)))
(assert (not (= x04 x54)))
(assert (not (= x04 x64)))
(assert (not (= x04 x74)))
(assert (not (= x04 (_ bv5 8))))
(assert (not (= x14 (_ bv2 8))))
(assert (not (= x14 x34)))
(assert (not (= x14 x44)))
(assert (not (= x14 x54)))
(assert (not (= x14 x64)))
(assert (not (= x14 x74)))
(assert (not (= x14 (_ bv5 8))))
(assert (not (= (_ bv2 8) x34)))
(assert (not (= (_ bv2 8) x44)))
(assert (not (= (_ bv2 8) x54)))
(assert (not (= (_ bv2 8) x64)))
(assert (not (= (_ bv2 8) x74)))
(assert (not (= (_ bv2 8) (_ bv5 8))))
(assert (not (= x34 x44)))
(assert (not (= x34 x54)))
(assert (not (= x34 x64)))
(assert (not (= x34 x74)))
(assert (not (= x34 (_ bv5 8))))
(assert (not (= x44 x54)))
(assert (not (= x44 x64)))
(assert (not (= x44 x74)))
(assert (not (= x44 (_ bv5 8))))
(assert (not (= x54 x64)))
(assert (not (= x54 x74)))
(assert (not (= x54 (_ bv5 8))))
(assert (not (= x64 x74)))
(assert (not (= x64 (_ bv5 8))))
(assert (not (= x74 (_ bv5 8))))
(assert (not (= (_ bv8 8) x15)))
(assert (not (= (_ bv8 8) x25)))
(assert (not (= (_ bv8 8) x35)))
(assert (not (= (_ bv8 8) x45)))
(assert (not (= (_ bv8 8) x55)))
(assert (not (= (_ bv8 8) x65)))
(assert (not (= (_ bv8 8) (_ bv3 8))))
(assert (not (= (_ bv8 8) x85)))
(assert (not (= x15 x25)))
(assert (not (= x15 x35)))
(assert (not (= x15 x45)))
(assert (not (= x15 x55)))
(assert (not (= x15 x65)))
(assert (not (= x15 (_ bv3 8))))
(assert (not (= x15 x85)))
(assert (not (= x25 x35)))
(assert (not (= x25 x45)))
(assert (not (= x25 x55)))
(assert (not (= x25 x65)))
(assert (not (= x25 (_ bv3 8))))
(assert (not (= x25 x85)))
(assert (not (= x35 x45)))
(assert (not (= x35 x55)))
(assert (not (= x35 x65)))
(assert (not (= x35 (_ bv3 8))))
(assert (not (= x35 x85)))
(assert (not (= x45 x55)))
(assert (not (= x45 x65)))
(assert (not (= x45 (_ bv3 8))))
(assert (not (= x45 x85)))
(assert (not (= x55 x65)))
(assert (not (= x55 (_ bv3 8))))
(assert (not (= x55 x85)))
(assert (not (= x65 (_ bv3 8))))
(assert (not (= x65 x85)))
(assert (not (= (_ bv3 8) x85)))
(assert (not (= x06 x16)))
(assert (not (= x06 (_ bv1 8))))
(assert (not (= x06 (_ bv7 8))))
(assert (not (= x06 x46)))
(assert (not (= x06 x56)))
(assert (not (= x06 (_ bv4 8))))
(assert (not (= x06 x76)))
(assert (not (= x06 x86)))
(assert (not (= x16 (_ bv1 8))))
(assert (not (= x16 (_ bv7 8))))
(assert (not (= x16 x46)))
(assert (not (= x16 x56)))
(assert (not (= x16 (_ bv4 8))))
(assert (not (= x16 x76)))
(assert (not (= x16 x86)))
(assert (not (= (_ bv1 8) (_ bv7 8))))
(assert (not (= (_ bv1 8) x46)))
(assert (not (= (_ bv1 8) x56)))
(assert (not (= (_ bv1 8) (_ bv4 8))))
(assert (not (= (_ bv1 8) x76)))
(assert (not (= (_ bv1 8) x86)))
(assert (not (= (_ bv7 8) x46)))
(assert (not (= (_ bv7 8) x56)))
(assert (not (= (_ bv7 8) (_ bv4 8))))
(assert (not (= (_ bv7 8) x76)))
(assert (not (= (_ bv7 8) x86)))
(assert (not (= x46 x56)))
(assert (not (= x46 (_ bv4 8))))
(assert (not (= x46 x76)))
(assert (not (= x46 x86)))
(assert (not (= x56 (_ bv4 8))))
(assert (not (= x56 x76)))
(assert (not (= x56 x86)))
(assert (not (= (_ bv4 8) x76)))
(assert (not (= (_ bv4 8) x86)))
(assert (not (= x76 x86)))
(assert (not (= (_ bv2 8) x17)))
(assert (not (= (_ bv2 8) x27)))
(assert (not (= (_ bv2 8) x37)))
(assert (not (= (_ bv2 8) (_ bv9 8))))
(assert (not (= (_ bv2 8) x57)))
(assert (not (= (_ bv2 8) x67)))
(assert (not (= (_ bv2 8) x77)))
(assert (not (= (_ bv2 8) x87)))
(assert (not (= x17 x27)))
(assert (not (= x17 x37)))
(assert (not (= x17 (_ bv9 8))))
(assert (not (= x17 x57)))
(assert (not (= x17 x67)))
(assert (not (= x17 x77)))
(assert (not (= x17 x87)))
(assert (not (= x27 x37)))
(assert (not (= x27 (_ bv9 8))))
(assert (not (= x27 x57)))
(assert (not (= x27 x67)))
(assert (not (= x27 x77)))
(assert (not (= x27 x87)))
(assert (not (= x37 (_ bv9 8))))
(assert (not (= x37 x57)))
(assert (not (= x37 x67)))
(assert (not (= x37 x77)))
(assert (not (= x37 x87)))
(assert (not (= (_ bv9 8) x57)))
(assert (not (= (_ bv9 8) x67)))
(assert (not (= (_ bv9 8) x77)))
(assert (not (= (_ bv9 8) x87)))
(assert (not (= x57 x67)))
(assert (not (= x57 x77)))
(assert (not (= x57 x87)))
(assert (not (= x67 x77)))
(assert (not (= x67 x87)))
(assert (not (= x77 x87)))
(assert (not (= (_ bv9 8) x18)))
(assert (not (= (_ bv9 8) x28)))
(assert (not (= (_ bv9 8) x38)))
(assert (not (= (_ bv9 8) (_ bv1 8))))
(assert (not (= (_ bv9 8) (_ bv8 8))))
(assert (not (= (_ bv9 8) x68)))
(assert (not (= (_ bv9 8) x78)))
(assert (not (= (_ bv9 8) x88)))
(assert (not (= x18 x28)))
(assert (not (= x18 x38)))
(assert (not (= x18 (_ bv1 8))))
(assert (not (= x18 (_ bv8 8))))
(assert (not (= x18 x68)))
(assert (not (= x18 x78)))
(assert (not (= x18 x88)))
(assert (not (= x28 x38)))
(assert (not (= x28 (_ bv1 8))))
(assert (not (= x28 (_ bv8 8))))
(assert (not (= x28 x68)))
(assert (not (= x28 x78)))
(assert (not (= x28 x88)))
(assert (not (= x38 (_ bv1 8))))
(assert (not (= x38 (_ bv8 8))))
(assert (not (= x38 x68)))
(assert (not (= x38 x78)))
(assert (not (= x38 x88)))
(assert (not (= (_ bv1 8) (_ bv8 8))))
(assert (not (= (_ bv1 8) x68)))
(assert (not (= (_ bv1 8) x78)))
(assert (not (= (_ bv1 8) x88)))
(assert (not (= (_ bv8 8) x68)))
(assert (not (= (_ bv8 8) x78)))
(assert (not (= (_ bv8 8) x88)))
(assert (not (= x68 x78)))
(assert (not (= x68 x88)))
(assert (not (= x78 x88)))
(assert (not (= x00 x01)))
(assert (not (= x00 x02)))
(assert (not (= x00 (_ bv4 8))))
(assert (not (= x00 x11)))
(assert (not (= x00 x12)))
(assert (not (= x00 x20)))
(assert (not (= x00 x21)))
(assert (not (= x00 x22)))
(assert (not (= x01 x02)))
(assert (not (= x01 (_ bv4 8))))
(assert (not (= x01 x11)))
(assert (not (= x01 x12)))
(assert (not (= x01 x20)))
(assert (not (= x01 x21)))
(assert (not (= x01 x22)))
(assert (not (= x02 (_ bv4 8))))
(assert (not (= x02 x11)))
(assert (not (= x02 x12)))
(assert (not (= x02 x20)))
(assert (not (= x02 x21)))
(assert (not (= x02 x22)))
(assert (not (= (_ bv4 8) x11)))
(assert (not (= (_ bv4 8) x12)))
(assert (not (= (_ bv4 8) x20)))
(assert (not (= (_ bv4 8) x21)))
(assert (not (= (_ bv4 8) x22)))
(assert (not (= x11 x12)))
(assert (not (= x11 x20)))
(assert (not (= x11 x21)))
(assert (not (= x11 x22)))
(assert (not (= x12 x20)))
(assert (not (= x12 x21)))
(assert (not (= x12 x22)))
(assert (not (= x20 x21)))
(assert (not (= x20 x22)))
(assert (not (= x21 x22)))
(assert (not (= x03 x04)))
(assert (not (= x03 (_ bv8 8))))
(assert (not (= x03 (_ bv7 8))))
(assert (not (= x03 x14)))
(assert (not (= x03 x15)))
(assert (not (= x03 x23)))
(assert (not (= x03 (_ bv2 8))))
(assert (not (= x03 x25)))
(assert (not (= x04 (_ bv8 8))))
(assert (not (= x04 (_ bv7 8))))
(assert (not (= x04 x14)))
(assert (not (= x04 x15)))
(assert (not (= x04 x23)))
(assert (not (= x04 (_ bv2 8))))
(assert (not (= x04 x25)))
(assert (not (= (_ bv8 8) (_ bv7 8))))
(assert (not (= (_ bv8 8) x14)))
(assert (not (= (_ bv8 8) x15)))
(assert (not (= (_ bv8 8) x23)))
(assert (not (= (_ bv8 8) (_ bv2 8))))
(assert (not (= (_ bv8 8) x25)))
(assert (not (= (_ bv7 8) x14)))
(assert (not (= (_ bv7 8) x15)))
(assert (not (= (_ bv7 8) x23)))
(assert (not (= (_ bv7 8) (_ bv2 8))))
(assert (not (= (_ bv7 8) x25)))
(assert (not (= x14 x15)))
(assert (not (= x14 x23)))
(assert (not (= x14 (_ bv2 8))))
(assert (not (= x14 x25)))
(assert (not (= x15 x23)))
(assert (not (= x15 (_ bv2 8))))
(assert (not (= x15 x25)))
(assert (not (= x23 (_ bv2 8))))
(assert (not (= x23 x25)))
(assert (not (= (_ bv2 8) x25)))
(assert (not (= x06 (_ bv2 8))))
(assert (not (= x06 (_ bv9 8))))
(assert (not (= x06 x16)))
(assert (not (= x06 x17)))
(assert (not (= x06 x18)))
(assert (not (= x06 (_ bv1 8))))
(assert (not (= x06 x27)))
(assert (not (= x06 x28)))
(assert (not (= (_ bv2 8) (_ bv9 8))))
(assert (not (= (_ bv2 8) x16)))
(assert (not (= (_ bv2 8) x17)))
(assert (not (= (_ bv2 8) x18)))
(assert (not (= (_ bv2 8) (_ bv1 8))))
(assert (not (= (_ bv2 8) x27)))
(assert (not (= (_ bv2 8) x28)))
(assert (not (= (_ bv9 8) x16)))
(assert (not (= (_ bv9 8) x17)))
(assert (not (= (_ bv9 8) x18)))
(assert (not (= (_ bv9 8) (_ bv1 8))))
(assert (not (= (_ bv9 8) x27)))
(assert (not (= (_ bv9 8) x28)))
(assert (not (= x16 x17)))
(assert (not (= x16 x18)))
(assert (not (= x16 (_ bv1 8))))
(assert (not (= x16 x27)))
(assert (not (= x16 x28)))
(assert (not (= x17 x18)))
(assert (not (= x17 (_ bv1 8))))
(assert (not (= x17 x27)))
(assert (not (= x17 x28)))
(assert (not (= x18 (_ bv1 8))))
(assert (not (= x18 x27)))
(assert (not (= x18 x28)))
(assert (not (= (_ bv1 8) x27)))
(assert (not (= (_ bv1 8) x28)))
(assert (not (= x27 x28)))
(assert (not (= (_ bv8 8) (_ bv5 8))))
(assert (not (= (_ bv8 8) x32)))
(assert (not (= (_ bv8 8) (_ bv6 8))))
(assert (not (= (_ bv8 8) x41)))
(assert (not (= (_ bv8 8) x42)))
(assert (not (= (_ bv8 8) x50)))
(assert (not (= (_ bv8 8) (_ bv1 8))))
(assert (not (= (_ bv8 8) x52)))
(assert (not (= (_ bv5 8) x32)))
(assert (not (= (_ bv5 8) (_ bv6 8))))
(assert (not (= (_ bv5 8) x41)))
(assert (not (= (_ bv5 8) x42)))
(assert (not (= (_ bv5 8) x50)))
(assert (not (= (_ bv5 8) (_ bv1 8))))
(assert (not (= (_ bv5 8) x52)))
(assert (not (= x32 (_ bv6 8))))
(assert (not (= x32 x41)))
(assert (not (= x32 x42)))
(assert (not (= x32 x50)))
(assert (not (= x32 (_ bv1 8))))
(assert (not (= x32 x52)))
(assert (not (= (_ bv6 8) x41)))
(assert (not (= (_ bv6 8) x42)))
(assert (not (= (_ bv6 8) x50)))
(assert (not (= (_ bv6 8) (_ bv1 8))))
(assert (not (= (_ bv6 8) x52)))
(assert (not (= x41 x42)))
(assert (not (= x41 x50)))
(assert (not (= x41 (_ bv1 8))))
(assert (not (= x41 x52)))
(assert (not (= x42 x50)))
(assert (not (= x42 (_ bv1 8))))
(assert (not (= x42 x52)))
(assert (not (= x50 (_ bv1 8))))
(assert (not (= x50 x52)))
(assert (not (= (_ bv1 8) x52)))
(assert (not (= (_ bv3 8) x34)))
(assert (not (= (_ bv3 8) x35)))
(assert (not (= (_ bv3 8) x43)))
(assert (not (= (_ bv3 8) x44)))
(assert (not (= (_ bv3 8) x45)))
(assert (not (= (_ bv3 8) x53)))
(assert (not (= (_ bv3 8) x54)))
(assert (not (= (_ bv3 8) x55)))
(assert (not (= x34 x35)))
(assert (not (= x34 x43)))
(assert (not (= x34 x44)))
(assert (not (= x34 x45)))
(assert (not (= x34 x53)))
(assert (not (= x34 x54)))
(assert (not (= x34 x55)))
(assert (not (= x35 x43)))
(assert (not (= x35 x44)))
(assert (not (= x35 x45)))
(assert (not (= x35 x53)))
(assert (not (= x35 x54)))
(assert (not (= x35 x55)))
(assert (not (= x43 x44)))
(assert (not (= x43 x45)))
(assert (not (= x43 x53)))
(assert (not (= x43 x54)))
(assert (not (= x43 x55)))
(assert (not (= x44 x45)))
(assert (not (= x44 x53)))
(assert (not (= x44 x54)))
(assert (not (= x44 x55)))
(assert (not (= x45 x53)))
(assert (not (= x45 x54)))
(assert (not (= x45 x55)))
(assert (not (= x53 x54)))
(assert (not (= x53 x55)))
(assert (not (= x54 x55)))
(assert (not (= (_ bv7 8) x37)))
(assert (not (= (_ bv7 8) x38)))
(assert (not (= (_ bv7 8) x46)))
(assert (not (= (_ bv7 8) (_ bv9 8))))
(assert (not (= (_ bv7 8) (_ bv1 8))))
(assert (not (= (_ bv7 8) x56)))
(assert (not (= (_ bv7 8) x57)))
(assert (not (= (_ bv7 8) (_ bv8 8))))
(assert (not (= x37 x38)))
(assert (not (= x37 x46)))
(assert (not (= x37 (_ bv9 8))))
(assert (not (= x37 (_ bv1 8))))
(assert (not (= x37 x56)))
(assert (not (= x37 x57)))
(assert (not (= x37 (_ bv8 8))))
(assert (not (= x38 x46)))
(assert (not (= x38 (_ bv9 8))))
(assert (not (= x38 (_ bv1 8))))
(assert (not (= x38 x56)))
(assert (not (= x38 x57)))
(assert (not (= x38 (_ bv8 8))))
(assert (not (= x46 (_ bv9 8))))
(assert (not (= x46 (_ bv1 8))))
(assert (not (= x46 x56)))
(assert (not (= x46 x57)))
(assert (not (= x46 (_ bv8 8))))
(assert (not (= (_ bv9 8) (_ bv1 8))))
(assert (not (= (_ bv9 8) x56)))
(assert (not (= (_ bv9 8) x57)))
(assert (not (= (_ bv9 8) (_ bv8 8))))
(assert (not (= (_ bv1 8) x56)))
(assert (not (= (_ bv1 8) x57)))
(assert (not (= (_ bv1 8) (_ bv8 8))))
(assert (not (= x56 x57)))
(assert (not (= x56 (_ bv8 8))))
(assert (not (= x57 (_ bv8 8))))
(assert (not (= (_ bv5 8) x61)))
(assert (not (= (_ bv5 8) x62)))
(assert (not (= (_ bv5 8) x70)))
(assert (not (= (_ bv5 8) (_ bv9 8))))
(assert (not (= (_ bv5 8) x72)))
(assert (not (= (_ bv5 8) x80)))
(assert (not (= (_ bv5 8) x81)))
(assert (not (= (_ bv5 8) (_ bv7 8))))
(assert (not (= x61 x62)))
(assert (not (= x61 x70)))
(assert (not (= x61 (_ bv9 8))))
(assert (not (= x61 x72)))
(assert (not (= x61 x80)))
(assert (not (= x61 x81)))
(assert (not (= x61 (_ bv7 8))))
(assert (not (= x62 x70)))
(assert (not (= x62 (_ bv9 8))))
(assert (not (= x62 x72)))
(assert (not (= x62 x80)))
(assert (not (= x62 x81)))
(assert (not (= x62 (_ bv7 8))))
(assert (not (= x70 (_ bv9 8))))
(assert (not (= x70 x72)))
(assert (not (= x70 x80)))
(assert (not (= x70 x81)))
(assert (not (= x70 (_ bv7 8))))
(assert (not (= (_ bv9 8) x72)))
(assert (not (= (_ bv9 8) x80)))
(assert (not (= (_ bv9 8) x81)))
(assert (not (= (_ bv9 8) (_ bv7 8))))
(assert (not (= x72 x80)))
(assert (not (= x72 x81)))
(assert (not (= x72 (_ bv7 8))))
(assert (not (= x80 x81)))
(assert (not (= x80 (_ bv7 8))))
(assert (not (= x81 (_ bv7 8))))
(assert (not (= x63 x64)))
(assert (not (= x63 x65)))
(assert (not (= x63 x73)))
(assert (not (= x63 x74)))
(assert (not (= x63 (_ bv3 8))))
(assert (not (= x63 (_ bv6 8))))
(assert (not (= x63 (_ bv5 8))))
(assert (not (= x63 x85)))
(assert (not (= x64 x65)))
(assert (not (= x64 x73)))
(assert (not (= x64 x74)))
(assert (not (= x64 (_ bv3 8))))
(assert (not (= x64 (_ bv6 8))))
(assert (not (= x64 (_ bv5 8))))
(assert (not (= x64 x85)))
(assert (not (= x65 x73)))
(assert (not (= x65 x74)))
(assert (not (= x65 (_ bv3 8))))
(assert (not (= x65 (_ bv6 8))))
(assert (not (= x65 (_ bv5 8))))
(assert (not (= x65 x85)))
(assert (not (= x73 x74)))
(assert (not (= x73 (_ bv3 8))))
(assert (not (= x73 (_ bv6 8))))
(assert (not (= x73 (_ bv5 8))))
(assert (not (= x73 x85)))
(assert (not (= x74 (_ bv3 8))))
(assert (not (= x74 (_ bv6 8))))
(assert (not (= x74 (_ bv5 8))))
(assert (not (= x74 x85)))
(assert (not (= (_ bv3 8) (_ bv6 8))))
(assert (not (= (_ bv3 8) (_ bv5 8))))
(assert (not (= (_ bv3 8) x85)))
(assert (not (= (_ bv6 8) (_ bv5 8))))
(assert (not (= (_ bv6 8) x85)))
(assert (not (= (_ bv5 8) x85)))
(assert (not (= (_ bv4 8) x67)))
(assert (not (= (_ bv4 8) x68)))
(assert (not (= (_ bv4 8) x76)))
(assert (not (= (_ bv4 8) x77)))
(assert (not (= (_ bv4 8) x78)))
(assert (not (= (_ bv4 8) x86)))
(assert (not (= (_ bv4 8) x87)))
(assert (not (= (_ bv4 8) x88)))
(assert (not (= x67 x68)))
(assert (not (= x67 x76)))
(assert (not (= x67 x77)))
(assert (not (= x67 x78)))
(assert (not (= x67 x86)))
(assert (not (= x67 x87)))
(assert (not (= x67 x88)))
(assert (not (= x68 x76)))
(assert (not (= x68 x77)))
(assert (not (= x68 x78)))
(assert (not (= x68 x86)))
(assert (not (= x68 x87)))
(assert (not (= x68 x88)))
(assert (not (= x76 x77)))
(assert (not (= x76 x78)))
(assert (not (= x76 x86)))
(assert (not (= x76 x87)))
(assert (not (= x76 x88)))
(assert (not (= x77 x78)))
(assert (not (= x77 x86)))
(assert (not (= x77 x87)))
(assert (not (= x77 x88)))
(assert (not (= x78 x86)))
(assert (not (= x78 x87)))
(assert (not (= x78 x88)))
(assert (not (= x86 x87)))
(assert (not (= x86 x88)))
(assert (not (= x87 x88)))
(check-sat)
(exit)
